p cnf 10 50
-6 4 -5 0
8 -4 7 0
8 6 -7 0
-7 -2 -8 0
-3 4 2 0
4 2 -3 0
-5 3 -7 0
7 -5 -10 0
-3 -2 -4 0
-9 -4 -7 0
-5 -4 -10 0
2 -5 -4 0
8 10 5 0
-9 10 5 0
-3 7 -8 0
1 -8 -5 0
4 -8 -6 0
-10 5 6 0
-9 -6 -8 0
-5 8 4 0
3 4 -10 0
-5 6 -4 0
-4 -9 5 0
-6 -3 7 0
5 -6 3 0
-10 -5 -2 0
4 8 7 0
-5 -6 -2 0
-7 -4 5 0
-4 -2 10 0
6 -10 -7 0
2 4 5 0
-3 9 1 0
5 -1 -7 0
2 9 3 0
5 -9 -6 0
-7 -5 -1 0
4 -3 -9 0
-9 -2 5 0
-1 2 6 0
6 2 3 0
-2 8 9 0
-7 -4 1 0
3 -1 8 0
1 4 -9 0
-2 8 4 0
8 4 2 0
1 2 -8 0
-5 -1 -3 0
-8 -9 2 0